100
32
21
18
1
16
2
16
1
10
25
12
14
2
9
16
2
16
28
2
8
13
1
5
2
4
9
17
2
2
3
22
18
3
2
1
2
3
2
1
16
3
1
1
1
3
2
3
20
2
1
18
9
2
2
3
17
2
3
6
3
12
17
1
2
1
1
4
1
1
3
18
3
3
4
19
7
5
3
2
1
1
5
4
3
23
2
1
1
1
1
2
18
1
1
2
1
1
1
2
1
1